c File: flat50_3_0.col
c
c SOURCE: Joseph Culberson (joe@cs.ualberta.ca)
c DESCRIPTION: Quasi-random coloring problem
c              generated with flatness = 0
c                             probability = 0.139
c                             known coloring = 3
c                             random seed = 1237
c              Creation Date:  Tue Jun  9 12:04:27 1998
c Maximum degree = 8 Minimum degree = 2
c p edge 50 115
c cnf created by edge2cnf
p cnf 150 545
-1 -2 0
-1 -3 0
-2 -3 0
1 2 3 0
-4 -5 0
-4 -6 0
-5 -6 0
4 5 6 0
-7 -8 0
-7 -9 0
-8 -9 0
7 8 9 0
-10 -11 0
-10 -12 0
-11 -12 0
10 11 12 0
-13 -14 0
-13 -15 0
-14 -15 0
13 14 15 0
-16 -17 0
-16 -18 0
-17 -18 0
16 17 18 0
-19 -20 0
-19 -21 0
-20 -21 0
19 20 21 0
-22 -23 0
-22 -24 0
-23 -24 0
22 23 24 0
-25 -26 0
-25 -27 0
-26 -27 0
25 26 27 0
-28 -29 0
-28 -30 0
-29 -30 0
28 29 30 0
-31 -32 0
-31 -33 0
-32 -33 0
31 32 33 0
-34 -35 0
-34 -36 0
-35 -36 0
34 35 36 0
-37 -38 0
-37 -39 0
-38 -39 0
37 38 39 0
-40 -41 0
-40 -42 0
-41 -42 0
40 41 42 0
-43 -44 0
-43 -45 0
-44 -45 0
43 44 45 0
-46 -47 0
-46 -48 0
-47 -48 0
46 47 48 0
-49 -50 0
-49 -51 0
-50 -51 0
49 50 51 0
-52 -53 0
-52 -54 0
-53 -54 0
52 53 54 0
-55 -56 0
-55 -57 0
-56 -57 0
55 56 57 0
-58 -59 0
-58 -60 0
-59 -60 0
58 59 60 0
-61 -62 0
-61 -63 0
-62 -63 0
61 62 63 0
-64 -65 0
-64 -66 0
-65 -66 0
64 65 66 0
-67 -68 0
-67 -69 0
-68 -69 0
67 68 69 0
-70 -71 0
-70 -72 0
-71 -72 0
70 71 72 0
-73 -74 0
-73 -75 0
-74 -75 0
73 74 75 0
-76 -77 0
-76 -78 0
-77 -78 0
76 77 78 0
-79 -80 0
-79 -81 0
-80 -81 0
79 80 81 0
-82 -83 0
-82 -84 0
-83 -84 0
82 83 84 0
-85 -86 0
-85 -87 0
-86 -87 0
85 86 87 0
-88 -89 0
-88 -90 0
-89 -90 0
88 89 90 0
-91 -92 0
-91 -93 0
-92 -93 0
91 92 93 0
-94 -95 0
-94 -96 0
-95 -96 0
94 95 96 0
-97 -98 0
-97 -99 0
-98 -99 0
97 98 99 0
-100 -101 0
-100 -102 0
-101 -102 0
100 101 102 0
-103 -104 0
-103 -105 0
-104 -105 0
103 104 105 0
-106 -107 0
-106 -108 0
-107 -108 0
106 107 108 0
-109 -110 0
-109 -111 0
-110 -111 0
109 110 111 0
-112 -113 0
-112 -114 0
-113 -114 0
112 113 114 0
-115 -116 0
-115 -117 0
-116 -117 0
115 116 117 0
-118 -119 0
-118 -120 0
-119 -120 0
118 119 120 0
-121 -122 0
-121 -123 0
-122 -123 0
121 122 123 0
-124 -125 0
-124 -126 0
-125 -126 0
124 125 126 0
-127 -128 0
-127 -129 0
-128 -129 0
127 128 129 0
-130 -131 0
-130 -132 0
-131 -132 0
130 131 132 0
-133 -134 0
-133 -135 0
-134 -135 0
133 134 135 0
-136 -137 0
-136 -138 0
-137 -138 0
136 137 138 0
-139 -140 0
-139 -141 0
-140 -141 0
139 140 141 0
-142 -143 0
-142 -144 0
-143 -144 0
142 143 144 0
-145 -146 0
-145 -147 0
-146 -147 0
145 146 147 0
-148 -149 0
-148 -150 0
-149 -150 0
148 149 150 0
-67 -1 0
-68 -2 0
-69 -3 0
-70 -1 0
-71 -2 0
-72 -3 0
-139 -1 0
-140 -2 0
-141 -3 0
-148 -1 0
-149 -2 0
-150 -3 0
-55 -4 0
-56 -5 0
-57 -6 0
-70 -4 0
-71 -5 0
-72 -6 0
-100 -4 0
-101 -5 0
-102 -6 0
-130 -4 0
-131 -5 0
-132 -6 0
-136 -4 0
-137 -5 0
-138 -6 0
-70 -7 0
-71 -8 0
-72 -9 0
-85 -7 0
-86 -8 0
-87 -9 0
-109 -7 0
-110 -8 0
-111 -9 0
-148 -7 0
-149 -8 0
-150 -9 0
-79 -10 0
-80 -11 0
-81 -12 0
-91 -10 0
-92 -11 0
-93 -12 0
-118 -10 0
-119 -11 0
-120 -12 0
-136 -10 0
-137 -11 0
-138 -12 0
-58 -13 0
-59 -14 0
-60 -15 0
-64 -13 0
-65 -14 0
-66 -15 0
-94 -13 0
-95 -14 0
-96 -15 0
-82 -16 0
-83 -17 0
-84 -18 0
-85 -16 0
-86 -17 0
-87 -18 0
-106 -16 0
-107 -17 0
-108 -18 0
-109 -16 0
-110 -17 0
-111 -18 0
-127 -16 0
-128 -17 0
-129 -18 0
-130 -16 0
-131 -17 0
-132 -18 0
-73 -19 0
-74 -20 0
-75 -21 0
-88 -19 0
-89 -20 0
-90 -21 0
-118 -19 0
-119 -20 0
-120 -21 0
-133 -19 0
-134 -20 0
-135 -21 0
-139 -19 0
-140 -20 0
-141 -21 0
-55 -22 0
-56 -23 0
-57 -24 0
-58 -22 0
-59 -23 0
-60 -24 0
-85 -22 0
-86 -23 0
-87 -24 0
-97 -22 0
-98 -23 0
-99 -24 0
-115 -22 0
-116 -23 0
-117 -24 0
-121 -22 0
-122 -23 0
-123 -24 0
-55 -25 0
-56 -26 0
-57 -27 0
-88 -25 0
-89 -26 0
-90 -27 0
-91 -25 0
-92 -26 0
-93 -27 0
-127 -25 0
-128 -26 0
-129 -27 0
-133 -25 0
-134 -26 0
-135 -27 0
-136 -25 0
-137 -26 0
-138 -27 0
-148 -25 0
-149 -26 0
-150 -27 0
-67 -28 0
-68 -29 0
-69 -30 0
-91 -28 0
-92 -29 0
-93 -30 0
-97 -28 0
-98 -29 0
-99 -30 0
-100 -28 0
-101 -29 0
-102 -30 0
-133 -28 0
-134 -29 0
-135 -30 0
-139 -28 0
-140 -29 0
-141 -30 0
-73 -31 0
-74 -32 0
-75 -33 0
-82 -31 0
-83 -32 0
-84 -33 0
-100 -31 0
-101 -32 0
-102 -33 0
-106 -31 0
-107 -32 0
-108 -33 0
-118 -31 0
-119 -32 0
-120 -33 0
-130 -31 0
-131 -32 0
-132 -33 0
-142 -31 0
-143 -32 0
-144 -33 0
-61 -34 0
-62 -35 0
-63 -36 0
-73 -34 0
-74 -35 0
-75 -36 0
-97 -34 0
-98 -35 0
-99 -36 0
-103 -34 0
-104 -35 0
-105 -36 0
-142 -34 0
-143 -35 0
-144 -36 0
-55 -37 0
-56 -38 0
-57 -39 0
-112 -37 0
-113 -38 0
-114 -39 0
-58 -40 0
-59 -41 0
-60 -42 0
-97 -40 0
-98 -41 0
-99 -42 0
-118 -40 0
-119 -41 0
-120 -42 0
-136 -40 0
-137 -41 0
-138 -42 0
-52 -43 0
-53 -44 0
-54 -45 0
-103 -43 0
-104 -44 0
-105 -45 0
-124 -43 0
-125 -44 0
-126 -45 0
-73 -46 0
-74 -47 0
-75 -48 0
-79 -46 0
-80 -47 0
-81 -48 0
-112 -46 0
-113 -47 0
-114 -48 0
-148 -46 0
-149 -47 0
-150 -48 0
-61 -49 0
-62 -50 0
-63 -51 0
-127 -49 0
-128 -50 0
-129 -51 0
-133 -49 0
-134 -50 0
-135 -51 0
-106 -52 0
-107 -53 0
-108 -54 0
-136 -52 0
-137 -53 0
-138 -54 0
-142 -52 0
-143 -53 0
-144 -54 0
-130 -55 0
-131 -56 0
-132 -57 0
-106 -58 0
-107 -59 0
-108 -60 0
-130 -58 0
-131 -59 0
-132 -60 0
-121 -61 0
-122 -62 0
-123 -63 0
-127 -61 0
-128 -62 0
-129 -63 0
-112 -64 0
-113 -65 0
-114 -66 0
-127 -64 0
-128 -65 0
-129 -66 0
-133 -64 0
-134 -65 0
-135 -66 0
-145 -64 0
-146 -65 0
-147 -66 0
-109 -67 0
-110 -68 0
-111 -69 0
-112 -70 0
-113 -71 0
-114 -72 0
-127 -70 0
-128 -71 0
-129 -72 0
-139 -70 0
-140 -71 0
-141 -72 0
-106 -73 0
-107 -74 0
-108 -75 0
-109 -76 0
-110 -77 0
-111 -78 0
-124 -76 0
-125 -77 0
-126 -78 0
-109 -79 0
-110 -80 0
-111 -81 0
-145 -82 0
-146 -83 0
-147 -84 0
-109 -85 0
-110 -86 0
-111 -87 0
-136 -85 0
-137 -86 0
-138 -87 0
-139 -85 0
-140 -86 0
-141 -87 0
-118 -88 0
-119 -89 0
-120 -90 0
-121 -88 0
-122 -89 0
-123 -90 0
-136 -88 0
-137 -89 0
-138 -90 0
-106 -91 0
-107 -92 0
-108 -93 0
-136 -91 0
-137 -92 0
-138 -93 0
-112 -94 0
-113 -95 0
-114 -96 0
-115 -94 0
-116 -95 0
-117 -96 0
-133 -94 0
-134 -95 0
-135 -96 0
-103 -97 0
-104 -98 0
-105 -99 0
-139 -97 0
-140 -98 0
-141 -99 0
-103 -100 0
-104 -101 0
-105 -102 0
-124 -100 0
-125 -101 0
-126 -102 0
-148 -100 0
-149 -101 0
-150 -102 0
